10J3M/DAT/10J3MULL-8.dat
10 3
32.9729 32.9729
22.2416 22.2416
9.2803 9.2803
31.8946 31.8946
11.9779 11.9779
13.8812 13.8812
33.7992 33.7992
5.4705 5.4705
49.7997 49.7997
34.5985 34.5985
81.9721