10J3M/SOL/10J3MULL-8.sol
solution status: optimal solution found
objective value:                              81.9721
x#1#2                                               1 	(obj:0)
x#2#1                                               1 	(obj:0)
x#3#1                                               1 	(obj:0)
x#4#1                               0.599493331159507 	(obj:0)
x#4#2                               0.400506668840493 	(obj:0)
x#5#1                                               1 	(obj:0)
x#6#1                                               1 	(obj:0)
x#7#2                                               1 	(obj:0)
x#8#1                                               1 	(obj:0)
x#9#3                               0.999997991955775 	(obj:0)
x#10#2                             0.0701186467621433 	(obj:0)
x#10#3                              0.929881353237857 	(obj:0)
z                                             81.9721 	(obj:1)
